Optimal - objective value 18.00000000
     12 x_0_13                  1                       1
     13 x_0_14                  1                       1
     72 x_3_16                  1                       1
     76 x_3_20                  1                       1
     97 x_5_8                   1                       4
    110 x_5_21                  1                       1
    125 x_6_21                  1                       2
    128 x_7_10                  1                       2
    138 x_7_20                  1                       2
    201 x_13_20                 1                       2
    202 x_13_21                 1                       1
    255 f_0_13                7.5                       0
    256 f_13_0    0.499999999999999                       0
    257 f_0_14                4.5                       0
    258 f_14_0                3.5                       0
    375 f_3_16                4.5                       0
    376 f_16_3                3.5                       0
    383 f_3_20                3.5                       0
    384 f_20_3                4.5                       0
    425 f_5_8                 4.5                       0
    426 f_8_5                 3.5                       0
    451 f_5_21                3.5                       0
    452 f_21_5                4.5                       0
    481 f_6_21                3.5                       0
    482 f_21_6                4.5                       0
    487 f_7_10                4.5                       0
    488 f_10_7                3.5                       0
    507 f_7_20                  3                       0
    508 f_20_7                  5                       0
    633 f_13_20                 6                       0
    634 f_20_13                 2                       0
    635 f_13_21                 5                       0
    636 f_21_13                 3                       0
